5 6 72
2 3 3 3 4 44 53 53 60 
4 4 1 4 2 4 3 4 4 44 51 51 57 57 66 66 72 
7 3 1 3 2 5 1 5 2 5 3 5 4 5 5 10 19 19 29 29 37 37 45 45 55 55 63 63 71 
6 2 1 2 2 1 1 1 2 2 3 1 3 12 23 23 34 34 45 45 54 54 62 62 71 
5 3 1 5 1 5 1 4 1 4 1 0 10 10 18 18 28 28 36 36 44 
5 2 1 1 1 1 1 3 3 3 3 0 12 12 18 18 30 30 36 36 44 
